p cnf 9 25
-4 0
1 9 -4 4 -9 9 -2 -8 0
8 -8 7 0
-7 0
9 2 3 -7 -2 -4 0
-1 -4 3 -5 -6 0
7 0
1 -1 -2 -5 -7 4 0
-9 -1 2 -5 9 9 -8 -9 0
-6 -6 0
4 -2 6 0
-3 0
-9 -9 -8 -5 7 -1 0
1 -8 7 -8 9 -2 -2 0
-2 -1 -3 1 1 -6 0
8 -7 8 1 -3 2 -1 -2 0
-8 1 0
-7 0
3 4 5 -5 -5 0
-8 8 -6 4 -7 9 0
-3 9 -6 0
-2 8 -7 0
1 -9 0
-2 -6 2 -1 -9 -3 9 -6 0
-8 8 -8 -8 0